lp_solve/lp_examples/ex4.out
Value of objective function:      1779.481026
tF1                 3.9317
tF2                 3.9157
tF3                 4.3017
tF4                 3.5617
tF5                 3.1917
tF6                 3.5617
tF7                 3.4939
ta'                 2.5876
tb'                 2.6917
tc'                 3.2939
td'                 2.1999
Sint13'             1.0266
SF1                      1
SF2                 1.5309
SF3                      1
SF4                      1
SF5                      1
SF6                      1
SF7                      3
TF1                 9.7303
TF2                 9.7303
TF3                 9.7303
TF4                 9.3603
TF5                 8.9903
TF6                 9.3603
TF7                 9.7303
Sa'                 1.6322
Sb'                 1.8399
Sc'                      1
Sd'                      3
Ta'                 2.5876
Tb'                 2.6917
Tc'                 3.2939
Td'                 2.1999
Tsub4               2.3668
Tsub1'              5.8146
Tsub2'              5.4286
Tsub3'              6.2364
Tsub4'              4.8163
tsub1'               3.227
tsub2'              2.7368
tsub3'              3.6488
tsub4'              2.4495
Tint13              2.5876
tint13              2.5876
Ssub1'                   1
Ssub2'                   1
Ssub3'                   3
Ssub4'                   1
Tint13'             5.7986
tint13'              3.211
Ssub4                    1
Sint13                   3
tsub4               2.3668
T_max               9.7303
These are the duals from the node that gave the optimal solution.
r_000001                 0
r_000002                 0
r_000003                 0
r_000004                 0
r_000005                 0
r_000006                 0
r_000007                 0
r_000008                 0
r_000009                 0
r_000010                 0
r_000011                 0
r_000012                 0
r_000013                 0
r_000014                 0
r_000015                 0
r_000016                 0
r_000017            1.0612
r_000018                 0
r_000019                 0
r_000020                 0
r_000021            1.0612
r_000022                 0
r_000023            1.0612
r_000024                 0
r_000025            1.1789
r_000026                 0
r_000027                 0
r_000028                 0
r_000029            1.1789
r_000030                 0
r_000031            1.1789
r_000032                 0
r_000033                 0
r_000034                 0
r_000035                 0
r_000036                 0
r_000037                 0
r_000038                 0
r_000039                 0
r_000040                 0
r_000041                 0
r_000042            166.45
r_000043                 0
r_000044                 0
r_000045            166.45
r_000046            1.0612
r_000047            1.0612
r_000048                 0
r_000049                 0
r_000050            2.3055
r_000051            2.3055
r_000052                 0
r_000053                 0
r_000054            10.184
r_000055                 0
r_000056                 0
r_000057                 0
r_000058            10.184
r_000059                 0
r_000060                 0
r_000061            177.76
r_000062                 0
r_000063                 0
r_000064            10.184
r_000065            2.3055
r_000066                 0
r_000067            165.27
r_000068                 0
r_000069                 0
r_000070            177.76
r_000071            166.45
r_000072                 0
r_000073                 0
r_000074            166.45
r_000075                 0
r_000076                 0
r_000077                 0
r_000078                 0
r_000079                 0
r_000080                 0
r_000081                 0
r_000082                 0
r_000083                 0
r_000084                 0
r_000085                 0
r_000086                 0
r_000087            1.0612
r_000088            1.0612
r_000089                 0
r_000090                 0
r_000091            2.3055
r_000092            2.3055
r_000093                 0
r_000094                 0
r_000095            10.184
r_000096            10.184
r_000097                 0
r_000098                 0
